(declare-fun var0 () String)
(declare-fun var1 () String)
(declare-fun var2 () String)
(declare-fun var3 () String)
(declare-fun var4 () String)
(declare-fun var5 () String)
(declare-fun var6 () String)
(declare-fun var7 () String)
(declare-fun var8 () String)
(declare-fun var9 () String)
(declare-fun var10 () String)
(declare-fun var11 () String)
(declare-fun var12 () String)
(declare-fun var13 () String)
(declare-fun var14 () String)
(declare-fun var15 () String)
(declare-fun var16 () String)
(declare-fun var17 () String)
(declare-fun var18 () String)
(declare-fun var19 () String)
(declare-fun var20 () String)
(declare-fun var21 () String)
(declare-fun var22 () String)
(declare-fun var23 () String)
(declare-fun var24 () String)
(declare-fun var25 () String)
(declare-fun var26 () String)
(declare-fun var27 () String)
(declare-fun var28 () String)
(declare-fun var29 () String)
(declare-fun var30 () String)
(declare-fun var31 () String)
(declare-fun var32 () String)
(declare-fun var33 () String)
(declare-fun var34 () String)
(declare-fun var35 () String)
(declare-fun var36 () String)
(declare-fun var37 () String)
(declare-fun var38 () String)
(declare-fun var39 () String)
(declare-fun var40 () String)
(declare-fun var41 () String)
(declare-fun var42 () String)
(declare-fun var43 () String)
(declare-fun var44 () String)
(declare-fun var45 () String)
(declare-fun var46 () String)
(declare-fun var47 () String)
(declare-fun var48 () String)
(declare-fun var49 () String)
(declare-fun var50 () String)
(declare-fun var51 () String)
(declare-fun var52 () String)
(declare-fun var53 () String)
(declare-fun var54 () String)
(declare-fun var55 () String)
(declare-fun var56 () String)
(declare-fun var57 () String)
(declare-fun var58 () String)
(declare-fun var59 () String)
(declare-fun var60 () String)
(assert (= var0 (str.++ var1 var2)))
(assert (= var2 (str.++ var3 var4)))
(assert (= var4 (str.++ var5 var6)))
(assert (= var6 (str.++ var7 var8)))
(assert (= var8 (str.++ var9 var10)))
(assert (= var10 (str.++ var11 var12)))
(assert (= var12 (str.++ var13 var14)))
(assert (= var14 (str.++ var15 var16)))
(assert (= var16 (str.++ var17 var18)))
(assert (= var18 (str.++ var19 var20)))
(assert (= var20 (str.++ var21 var22)))
(assert (= var22 (str.++ var23 var24)))
(assert (= var24 (str.++ var25 var26)))
(assert (= var26 (str.++ var27 var28)))
(assert (= var28 (str.++ var29 var30)))
(assert (= var30 (str.++ var31 var32)))
(assert (= var32 (str.++ var33 var34)))
(assert (= var34 (str.++ var35 var36)))
(assert (= var36 (str.++ var37 var38)))
(assert (= var38 (str.++ var39 var40)))
(assert (= var40 (str.++ var41 var42)))
(assert (= var42 (str.++ var43 var44)))
(assert (= var44 (str.++ var45 var46)))
(assert (= var46 (str.++ var47 var48)))
(assert (= var48 (str.++ var49 var50)))
(assert (= var50 (str.++ var51 var52)))
(assert (= var52 (str.++ var53 var54)))
(assert (= var54 (str.++ var55 var56)))
(assert (= var56 (str.++ var57 var58)))
(assert (= var58 (str.++ var59 var60)))
(assert (= var0 "solution"))
(assert (= "S" (str.at var53 592)))
(assert (= "<" (str.at var0 93)))
(assert (= "!" (str.at var21 796)))
(assert (= "l" (str.at var49 614)))
(assert (= "-" (str.at var36 684)))
(assert (= "y" (str.at var5 627)))
(assert (= "u" (str.at var35 55)))
(assert (= ">" (str.at var41 546)))
(assert (= "v" (str.at var23 517)))
(assert (= "<" (str.at var56 539)))
(assert (= "%" (str.at var57 450)))
(assert (= "1" (str.at var22 295)))
(assert (= "(" (str.at var42 998)))
(assert (= "S" (str.at var0 126)))
(assert (= "V" (str.at var22 797)))
(assert (= "G" (str.at var50 217)))
(assert (= "f" (str.at var34 494)))
(assert (= "N" (str.at var59 581)))
(assert (= "{" (str.at var0 579)))
(assert (= "#" (str.at var30 40)))
(assert (= ";" (str.at var21 186)))
(assert (= "$" (str.at var60 475)))
(assert (= "F" (str.at var2 658)))
(assert (= ")" (str.at var11 398)))
(assert (= ";" (str.at var59 693)))
(assert (= "E" (str.at var0 452)))
(assert (= "x" (str.at var39 436)))
(assert (= "6" (str.at var31 436)))
(assert (= """" (str.at var15 68)))
(assert (= "4" (str.at var45 389)))
(assert (= "A" (str.at var7 82)))
(assert (= "&" (str.at var0 889)))
(assert (= "t" (str.at var22 810)))
(assert (= "l" (str.at var60 483)))
(assert (= "`" (str.at var36 475)))
(assert (= "@" (str.at var23 82)))
(assert (= "\\" (str.at var37 675)))
(assert (= "5" (str.at var57 455)))
(assert (= "Z" (str.at var37 733)))
(assert (= ">" (str.at var59 806)))
(assert (= "'" (str.at var45 717)))
(assert (= "/" (str.at var40 768)))
(assert (= "1" (str.at var20 973)))
(assert (= "-" (str.at var45 577)))
(assert (= "-" (str.at var8 23)))
(assert (= "-" (str.at var48 410)))
(assert (= "t" (str.at var30 999)))
(assert (= "9" (str.at var26 800)))
(assert (= "1" (str.at var30 51)))
(assert (= "'" (str.at var47 777)))
(assert (= "L" (str.at var12 861)))
(assert (= "_" (str.at var11 550)))
(assert (= "s" (str.at var7 430)))
(assert (= "&" (str.at var16 779)))
(assert (= "U" (str.at var47 657)))
(assert (= "$" (str.at var30 231)))
(assert (= "u" (str.at var58 684)))
(assert (= "+" (str.at var44 854)))
(assert (= "O" (str.at var32 553)))
(assert (= "z" (str.at var38 997)))
(assert (= "." (str.at var5 365)))
(assert (= "T" (str.at var31 602)))
(assert (= "-" (str.at var11 559)))
(assert (= "z" (str.at var15 308)))
(assert (= "t" (str.at var46 753)))
(assert (= "}" (str.at var9 489)))
(assert (= """" (str.at var28 24)))
(assert (= "M" (str.at var5 90)))
(assert (= "Z" (str.at var46 97)))
(assert (= "1" (str.at var25 272)))
(assert (= "|" (str.at var36 763)))
(assert (= "t" (str.at var24 654)))
(assert (= "g" (str.at var7 571)))
(assert (= "+" (str.at var22 992)))
(assert (= "t" (str.at var18 175)))
(assert (= "g" (str.at var12 166)))
(assert (= "e" (str.at var4 889)))
(assert (= "@" (str.at var25 547)))
(assert (= "7" (str.at var40 723)))
(assert (= "h" (str.at var59 138)))
(assert (= "|" (str.at var40 587)))
(assert (= "G" (str.at var59 13)))
(assert (= "e" (str.at var10 537)))
(assert (= "F" (str.at var11 970)))
(assert (= "x" (str.at var2 187)))
(assert (= "?" (str.at var21 995)))
(assert (= "V" (str.at var43 126)))
(assert (= "." (str.at var25 636)))
(assert (= "r" (str.at var24 970)))
(assert (= "n" (str.at var54 450)))
(assert (= "Y" (str.at var15 410)))
(assert (= "E" (str.at var54 646)))
(assert (= "a" (str.at var6 205)))
(assert (= "3" (str.at var42 142)))
(assert (= "G" (str.at var57 560)))
(assert (= "C" (str.at var35 186)))
(assert (= "p" (str.at var18 368)))
(assert (= "e" (str.at var10 919)))
(assert (= """" (str.at var36 893)))
(assert (= "!" (str.at var10 19)))
(assert (= "v" (str.at var59 912)))
(assert (= ";" (str.at var57 141)))
(assert (= "x" (str.at var54 728)))
(assert (= "$" (str.at var60 153)))
(assert (= "s" (str.at var48 749)))
(assert (= "m" (str.at var50 519)))
(assert (= "q" (str.at var7 40)))
(assert (= "2" (str.at var35 497)))
(assert (= "p" (str.at var34 831)))
(assert (= ";" (str.at var17 792)))
(assert (= "8" (str.at var22 938)))
(assert (= ":" (str.at var37 873)))
(assert (= "z" (str.at var32 792)))
(assert (= "P" (str.at var57 986)))
(assert (= "N" (str.at var9 543)))
(assert (= "Z" (str.at var33 704)))
(assert (= "k" (str.at var49 810)))
(assert (= "k" (str.at var13 809)))
(assert (= "j" (str.at var44 514)))
(assert (= "s" (str.at var0 869)))
(assert (= "4" (str.at var33 989)))
(assert (= "(" (str.at var23 901)))
(assert (= "F" (str.at var8 743)))
(assert (= "L" (str.at var26 841)))
(assert (= "H" (str.at var22 348)))
(assert (= "(" (str.at var22 704)))
(assert (= "R" (str.at var37 454)))
(assert (= "U" (str.at var46 760)))
(assert (= "}" (str.at var19 274)))
(assert (= "b" (str.at var19 204)))
(assert (= "%" (str.at var25 205)))
(assert (= "G" (str.at var9 366)))
(assert (= "(" (str.at var15 629)))
(assert (= "N" (str.at var31 252)))
(assert (= ";" (str.at var23 935)))
(assert (= "*" (str.at var33 699)))
(assert (= "V" (str.at var50 24)))
(assert (= "N" (str.at var25 357)))
(assert (= "*" (str.at var5 612)))
(assert (= "K" (str.at var18 79)))
(assert (= "c" (str.at var25 343)))
(assert (= "0" (str.at var55 617)))
(assert (= "_" (str.at var42 662)))
(assert (= ">" (str.at var12 663)))
(assert (= "<" (str.at var20 375)))
(assert (= "z" (str.at var19 526)))
(assert (= "h" (str.at var38 357)))
(assert (= "<" (str.at var39 849)))
(assert (= "K" (str.at var50 892)))
(assert (= "!" (str.at var22 397)))
(assert (= "0" (str.at var41 471)))
(assert (= "-" (str.at var41 760)))
(assert (= "<" (str.at var30 930)))
(assert (= "a" (str.at var19 738)))
(assert (= "H" (str.at var10 819)))
(assert (= "(" (str.at var40 358)))
(assert (= "," (str.at var40 95)))
(assert (= "'" (str.at var57 902)))
(assert (= "%" (str.at var48 404)))
(assert (= "j" (str.at var57 37)))
(assert (= "S" (str.at var26 81)))
(assert (= "K" (str.at var1 983)))
(assert (= "7" (str.at var49 583)))
(assert (= "W" (str.at var32 931)))
(assert (= """" (str.at var55 1000)))
(assert (= "n" (str.at var44 747)))
(assert (= "Z" (str.at var8 27)))
(assert (= "r" (str.at var31 673)))
(assert (= ")" (str.at var45 404)))
(assert (= "?" (str.at var48 152)))
(assert (= "/" (str.at var14 973)))
(assert (= "s" (str.at var18 516)))
(assert (= "x" (str.at var27 832)))
(assert (= "O" (str.at var33 50)))
(assert (= "\\" (str.at var54 432)))
(assert (= "#" (str.at var26 320)))
(assert (= "H" (str.at var3 336)))
(assert (= "1" (str.at var15 373)))
(assert (= "p" (str.at var43 606)))
(assert (= "R" (str.at var15 327)))
(assert (= "N" (str.at var18 407)))
(assert (= "*" (str.at var20 76)))
(assert (= ")" (str.at var46 582)))
(assert (= "'" (str.at var2 238)))
(assert (= "0" (str.at var16 105)))
(assert (= "c" (str.at var54 191)))
(assert (= "O" (str.at var25 401)))
(assert (= "z" (str.at var19 589)))
(assert (= "?" (str.at var0 735)))
(assert (= "p" (str.at var27 792)))
(assert (= "9" (str.at var0 244)))
(assert (= "B" (str.at var49 903)))
(assert (= "T" (str.at var34 339)))
(assert (= "_" (str.at var29 885)))
(assert (= "j" (str.at var53 319)))
(assert (= "." (str.at var8 807)))
(assert (= "Y" (str.at var42 279)))
(assert (= "1" (str.at var20 656)))
(assert (= "Q" (str.at var12 317)))
(assert (= "T" (str.at var31 823)))
(assert (= "/" (str.at var18 784)))
(assert (= "K" (str.at var52 282)))
(assert (= "}" (str.at var0 552)))
(assert (= ":" (str.at var11 767)))
(assert (= "R" (str.at var19 116)))
(assert (= "x" (str.at var4 785)))
(assert (= "S" (str.at var27 17)))
(assert (= "v" (str.at var27 472)))
(assert (= "," (str.at var20 13)))
(assert (= "<" (str.at var22 905)))
(assert (= "x" (str.at var39 959)))
(assert (= "+" (str.at var7 125)))
(assert (= "Y" (str.at var17 553)))
(assert (= "k" (str.at var32 265)))
(assert (= "o" (str.at var58 399)))
(assert (= "f" (str.at var28 924)))
(assert (= "x" (str.at var41 611)))
(assert (= "Y" (str.at var39 857)))
(assert (= "d" (str.at var51 849)))
(assert (= "q" (str.at var15 132)))
(assert (= "V" (str.at var50 61)))
(assert (= "-" (str.at var12 549)))
(assert (= "|" (str.at var29 974)))
(assert (= "`" (str.at var55 287)))
(assert (= ">" (str.at var22 394)))
(assert (= "|" (str.at var33 873)))
(assert (= "|" (str.at var20 488)))
(assert (= "w" (str.at var47 90)))
(assert (= "l" (str.at var49 148)))
(assert (= "C" (str.at var44 673)))
(assert (= "%" (str.at var41 924)))
(assert (= """" (str.at var12 850)))
(assert (= "I" (str.at var45 63)))
(assert (= "V" (str.at var51 622)))
(assert (= "r" (str.at var42 391)))
(assert (= "X" (str.at var7 15)))
(assert (= "$" (str.at var0 197)))
(assert (= "A" (str.at var7 468)))
(assert (= "}" (str.at var15 1000)))
(assert (= "d" (str.at var8 304)))
(assert (= "w" (str.at var36 956)))
(assert (= "k" (str.at var46 844)))
(assert (= "@" (str.at var3 297)))
(assert (= "5" (str.at var41 470)))
(assert (= "n" (str.at var49 659)))
(assert (= "6" (str.at var14 429)))
(assert (= "q" (str.at var20 270)))
(assert (= "5" (str.at var34 449)))
(assert (= "7" (str.at var5 109)))
(assert (= "\\" (str.at var34 721)))
(assert (= "w" (str.at var1 372)))
(assert (= "#" (str.at var13 519)))
(assert (= "n" (str.at var49 632)))
(assert (= "5" (str.at var28 898)))
(assert (= "^" (str.at var0 34)))
(assert (= "<" (str.at var4 395)))
(assert (= "V" (str.at var2 812)))
(assert (= "}" (str.at var49 362)))
(assert (= "G" (str.at var54 198)))
(assert (= "S" (str.at var34 744)))
(assert (= "%" (str.at var50 872)))
(assert (= "S" (str.at var33 794)))
(assert (= "n" (str.at var11 669)))
(assert (= "y" (str.at var14 253)))
(assert (= "c" (str.at var5 333)))
(assert (= "b" (str.at var60 83)))
(assert (= "y" (str.at var14 319)))
(assert (= "A" (str.at var50 709)))
(assert (= "/" (str.at var33 162)))
(assert (= "&" (str.at var56 303)))
(assert (= "J" (str.at var18 399)))
(assert (= "J" (str.at var42 359)))
(assert (= "d" (str.at var15 224)))
(assert (= "e" (str.at var20 155)))
(assert (= "." (str.at var22 723)))
(assert (= "@" (str.at var56 34)))
(assert (= "~" (str.at var0 772)))
(assert (= "]" (str.at var16 432)))
(assert (= "y" (str.at var60 615)))
(assert (= "n" (str.at var10 360)))
(assert (= "^" (str.at var24 67)))
(assert (= "X" (str.at var23 653)))
(assert (= "p" (str.at var51 926)))
(assert (= "}" (str.at var10 193)))
(assert (= "1" (str.at var20 669)))
(assert (= "F" (str.at var2 384)))
(assert (= "W" (str.at var39 284)))
(assert (= "n" (str.at var7 49)))
(assert (= "U" (str.at var34 356)))
(assert (= "%" (str.at var13 480)))
(assert (= "7" (str.at var36 174)))
(assert (= "k" (str.at var22 545)))
(assert (= "#" (str.at var59 477)))
(assert (= "6" (str.at var20 673)))
(assert (= "D" (str.at var57 22)))
(assert (= "!" (str.at var59 371)))
(assert (= "V" (str.at var45 169)))
(assert (= "G" (str.at var19 697)))
(assert (= "a" (str.at var39 182)))
(assert (= "M" (str.at var37 352)))
(assert (= "}" (str.at var14 547)))
(assert (= "$" (str.at var55 651)))
(assert (= "+" (str.at var7 445)))
(assert (= "X" (str.at var58 461)))
(assert (= "^" (str.at var17 46)))
(assert (= ":" (str.at var10 823)))
(assert (= ")" (str.at var58 577)))
(assert (= ":" (str.at var53 72)))
(assert (= "7" (str.at var57 35)))
(assert (= "1" (str.at var41 566)))
(assert (= "." (str.at var31 154)))
(assert (= "}" (str.at var31 276)))
(assert (= "d" (str.at var58 991)))
(assert (= "/" (str.at var29 862)))
(assert (= "S" (str.at var18 157)))
(assert (= "a" (str.at var59 87)))
(assert (= "E" (str.at var18 944)))
(assert (= "a" (str.at var23 752)))
(assert (= "," (str.at var3 572)))
(assert (= "v" (str.at var0 381)))
(assert (= "D" (str.at var2 560)))
(assert (= "&" (str.at var36 106)))
(assert (= """" (str.at var13 98)))
(assert (= "o" (str.at var59 906)))
(assert (= "k" (str.at var29 517)))
(assert (= "z" (str.at var20 277)))
(assert (= "M" (str.at var12 377)))
(assert (= "R" (str.at var14 134)))
(assert (= "[" (str.at var20 474)))
(assert (= "x" (str.at var11 523)))
(assert (= "6" (str.at var1 123)))
(assert (= "J" (str.at var39 64)))
(assert (= "e" (str.at var9 88)))
(assert (= "?" (str.at var52 215)))
(assert (= "a" (str.at var47 107)))
(assert (= "6" (str.at var20 138)))
(assert (= "t" (str.at var23 353)))
(assert (= "x" (str.at var48 984)))
(assert (= "p" (str.at var9 636)))
(assert (= "Z" (str.at var22 480)))
(assert (= "@" (str.at var20 221)))
(assert (= "g" (str.at var5 879)))
(assert (= "g" (str.at var5 81)))
(assert (= "[" (str.at var0 21)))
(assert (= "[" (str.at var19 445)))
(assert (= "e" (str.at var17 122)))
(assert (= "L" (str.at var51 6)))
(assert (= "L" (str.at var60 759)))
(assert (= "N" (str.at var21 813)))
(assert (= "v" (str.at var28 384)))
(assert (= "b" (str.at var1 607)))
(assert (= "q" (str.at var53 168)))
(assert (= "l" (str.at var55 148)))
(assert (= "*" (str.at var45 426)))
(assert (= "H" (str.at var18 464)))
(assert (= "+" (str.at var0 439)))
(assert (= "k" (str.at var46 270)))
(assert (= "A" (str.at var11 299)))
(assert (= "G" (str.at var18 709)))
(assert (= "K" (str.at var43 161)))
(assert (= "#" (str.at var9 87)))
(assert (= "U" (str.at var20 510)))
(assert (= "D" (str.at var48 79)))
(assert (= "Q" (str.at var23 31)))
(assert (= "&" (str.at var19 5)))
(assert (= ">" (str.at var54 468)))
(assert (= "m" (str.at var49 387)))
(assert (= "Z" (str.at var34 748)))
(assert (= "t" (str.at var20 829)))
(assert (= "k" (str.at var22 781)))
(assert (= "Q" (str.at var12 690)))
(assert (= "w" (str.at var57 237)))
(assert (= "V" (str.at var32 429)))
(assert (= "E" (str.at var54 744)))
(assert (= "Q" (str.at var40 200)))
(assert (= "w" (str.at var16 74)))
(assert (= "m" (str.at var19 685)))
(assert (= ")" (str.at var27 765)))
(assert (= "o" (str.at var43 447)))
(assert (= ">" (str.at var56 863)))
(assert (= "z" (str.at var27 144)))
(assert (= "2" (str.at var55 968)))
(assert (= "t" (str.at var26 411)))
(assert (= "T" (str.at var23 635)))
(assert (= "i" (str.at var51 484)))
(assert (= "(" (str.at var28 326)))
(assert (= "e" (str.at var52 935)))
(assert (= "I" (str.at var32 737)))
(assert (= "l" (str.at var14 125)))
(assert (= "r" (str.at var5 322)))
(assert (= "0" (str.at var32 171)))
(assert (= "c" (str.at var48 671)))
(assert (= "B" (str.at var7 798)))
(assert (= ">" (str.at var57 134)))
(assert (= "0" (str.at var7 819)))
(assert (= "p" (str.at var50 809)))
(assert (= "a" (str.at var7 908)))
(assert (= "$" (str.at var17 569)))
(assert (= ";" (str.at var8 161)))
(assert (= "S" (str.at var15 473)))
(assert (= "Z" (str.at var45 690)))
(assert (= "7" (str.at var46 872)))
(assert (= "v" (str.at var7 499)))
(assert (= "/" (str.at var8 63)))
(assert (= "." (str.at var17 546)))
(assert (= "o" (str.at var2 595)))
(assert (= "x" (str.at var17 836)))
(assert (= "E" (str.at var49 59)))
(assert (= "P" (str.at var0 122)))
(assert (= "x" (str.at var22 943)))
(assert (= "$" (str.at var1 809)))
(assert (= "d" (str.at var12 475)))
(assert (= """" (str.at var41 519)))
(assert (= "A" (str.at var15 424)))
(assert (= "L" (str.at var19 237)))
(assert (= "Y" (str.at var27 143)))
(assert (= "n" (str.at var15 222)))
(assert (= "[" (str.at var31 849)))
(assert (= "z" (str.at var56 612)))
(assert (= "p" (str.at var45 379)))
(assert (= "S" (str.at var55 823)))
(assert (= "J" (str.at var19 921)))
(assert (= "&" (str.at var13 668)))
(assert (= "[" (str.at var54 705)))
(assert (= "K" (str.at var7 682)))
(assert (= "L" (str.at var52 173)))
(assert (= "4" (str.at var58 349)))
(assert (= "0" (str.at var56 932)))
(assert (= "p" (str.at var48 60)))
(assert (= "m" (str.at var60 565)))
(assert (= "~" (str.at var53 48)))
(assert (= "x" (str.at var35 971)))
(assert (= "H" (str.at var13 440)))
(assert (= "p" (str.at var47 934)))
(assert (= "$" (str.at var57 372)))
(assert (= "}" (str.at var59 507)))
(assert (= "T" (str.at var24 584)))
(assert (= "#" (str.at var2 792)))
(assert (= "f" (str.at var37 668)))
(assert (= "A" (str.at var58 289)))
(assert (= "l" (str.at var53 187)))
(assert (= "$" (str.at var2 726)))
(assert (= "8" (str.at var53 39)))
(assert (= "I" (str.at var28 234)))
(assert (= "T" (str.at var42 439)))
(assert (= "v" (str.at var9 439)))
(assert (= "O" (str.at var33 759)))
(assert (= ";" (str.at var35 885)))
(assert (= "q" (str.at var12 437)))
(assert (= "l" (str.at var59 976)))
(assert (= "~" (str.at var37 29)))
(assert (= ":" (str.at var24 987)))
(assert (= "b" (str.at var50 853)))
(assert (= "2" (str.at var32 65)))
(assert (= "." (str.at var45 553)))
(assert (= "d" (str.at var34 940)))
(assert (= "#" (str.at var26 430)))
(assert (= "^" (str.at var5 861)))
(assert (= "R" (str.at var52 832)))
(assert (= "p" (str.at var30 906)))
(assert (= "T" (str.at var7 663)))
(assert (= "k" (str.at var53 257)))
(assert (= "~" (str.at var42 123)))
(assert (= "K" (str.at var23 433)))
(assert (= "&" (str.at var18 669)))
(assert (= "j" (str.at var18 128)))
(assert (= "=" (str.at var29 58)))
(assert (= "h" (str.at var6 470)))
(assert (= "h" (str.at var33 406)))
(assert (= "W" (str.at var26 720)))
(assert (= "'" (str.at var44 436)))
(assert (= "<" (str.at var24 706)))
(assert (= "}" (str.at var51 164)))
(assert (= "[" (str.at var46 216)))
(assert (= "q" (str.at var28 641)))
(assert (= "~" (str.at var28 625)))
(assert (= "O" (str.at var4 241)))
(assert (= "|" (str.at var0 712)))
(assert (= "&" (str.at var53 831)))
(assert (= "g" (str.at var37 360)))
(assert (= "B" (str.at var7 717)))
(assert (= """" (str.at var17 417)))
(assert (= "7" (str.at var42 494)))
(assert (= "r" (str.at var39 91)))
(assert (= "%" (str.at var8 316)))
(assert (= "T" (str.at var27 610)))
(assert (= "D" (str.at var51 722)))
(assert (= ">" (str.at var25 789)))
(assert (= ";" (str.at var48 879)))
(assert (= "W" (str.at var39 878)))
(assert (= "S" (str.at var14 318)))
(assert (= ";" (str.at var31 692)))
(assert (= "S" (str.at var2 900)))
(assert (= "7" (str.at var15 372)))
(assert (= "q" (str.at var14 203)))
(assert (= "?" (str.at var13 31)))
(assert (= "M" (str.at var18 255)))
(assert (= ";" (str.at var6 378)))
(assert (= "J" (str.at var16 768)))
(assert (= "i" (str.at var43 450)))
(assert (= "N" (str.at var34 771)))
(assert (= "u" (str.at var43 87)))
(assert (= "T" (str.at var42 596)))
(assert (= "X" (str.at var15 223)))
(assert (= "}" (str.at var55 40)))
(assert (= "M" (str.at var13 876)))
(assert (= "b" (str.at var3 982)))
(assert (= "2" (str.at var1 394)))
(assert (= "," (str.at var24 403)))
(assert (= "w" (str.at var21 816)))
(assert (= "z" (str.at var51 394)))
(assert (= "k" (str.at var57 374)))
(assert (= "g" (str.at var0 661)))
(assert (= "b" (str.at var23 486)))
(assert (= "<" (str.at var21 571)))
(assert (= "W" (str.at var45 10)))
(assert (= "8" (str.at var41 216)))
(assert (= "z" (str.at var48 185)))
(assert (= "t" (str.at var32 900)))
(assert (= "_" (str.at var3 600)))
(assert (= "'" (str.at var33 795)))
(assert (= "q" (str.at var29 319)))
(assert (= "," (str.at var14 24)))
(assert (= "c" (str.at var8 696)))
(assert (= "Z" (str.at var46 271)))
(assert (= ";" (str.at var46 886)))
(assert (= "u" (str.at var10 735)))
(assert (= "-" (str.at var7 691)))
(assert (= "%" (str.at var1 12)))
(assert (= "a" (str.at var37 63)))
(assert (= "7" (str.at var26 620)))
(assert (= "T" (str.at var31 182)))
(assert (= "7" (str.at var60 875)))
(assert (= "(" (str.at var15 848)))
(assert (= "@" (str.at var35 576)))
(assert (= "G" (str.at var29 176)))
(assert (= "S" (str.at var52 80)))
(assert (= "W" (str.at var29 665)))
(assert (= "!" (str.at var23 395)))
(assert (= "q" (str.at var23 941)))
(assert (= "]" (str.at var14 396)))
(assert (= ":" (str.at var40 237)))
(assert (= "%" (str.at var22 162)))
(assert (= "@" (str.at var16 567)))
(assert (= "B" (str.at var20 178)))
(assert (= "]" (str.at var50 498)))
(assert (= "$" (str.at var48 176)))
(assert (= "8" (str.at var17 616)))
(assert (= "p" (str.at var32 947)))
(assert (= "m" (str.at var5 432)))
(assert (= "r" (str.at var36 221)))
(assert (= "0" (str.at var40 674)))
(assert (= "S" (str.at var27 252)))
(assert (= "F" (str.at var50 919)))
(assert (= """" (str.at var50 973)))
(assert (= "h" (str.at var8 32)))
(assert (= "{" (str.at var37 223)))
(assert (= "S" (str.at var38 431)))
(assert (= "=" (str.at var25 457)))
(assert (= "A" (str.at var50 405)))
(assert (= "A" (str.at var5 932)))
(assert (= "-" (str.at var45 649)))
(assert (= "?" (str.at var20 462)))
(assert (= "V" (str.at var30 988)))
(assert (= "%" (str.at var21 879)))
(assert (= "B" (str.at var28 851)))
(assert (= "a" (str.at var34 387)))
(assert (= "W" (str.at var34 239)))
(assert (= "u" (str.at var2 112)))
(assert (= "D" (str.at var39 829)))
(assert (= "z" (str.at var21 143)))
(assert (= "p" (str.at var5 682)))
(assert (= "Y" (str.at var52 49)))
(assert (= "z" (str.at var60 457)))
(assert (= "U" (str.at var13 835)))
(assert (= "*" (str.at var13 314)))
(assert (= "x" (str.at var47 136)))
(assert (= "D" (str.at var0 811)))
(assert (= "S" (str.at var7 608)))
(assert (= "q" (str.at var26 781)))
(assert (= "i" (str.at var6 364)))
(assert (= ";" (str.at var6 975)))
(assert (= "v" (str.at var41 422)))
(assert (= "r" (str.at var0 132)))
(assert (= "S" (str.at var51 542)))
(assert (= "c" (str.at var23 893)))
(assert (= "`" (str.at var31 900)))
(assert (= "Y" (str.at var49 665)))
(assert (= "s" (str.at var48 133)))
(assert (= "(" (str.at var30 697)))
(assert (= "S" (str.at var16 893)))
(assert (= "F" (str.at var12 333)))
(assert (= "2" (str.at var33 737)))
(assert (= "u" (str.at var14 619)))
(assert (= "\\" (str.at var10 310)))
(assert (= ">" (str.at var44 22)))
(assert (= "&" (str.at var22 329)))
(assert (= "l" (str.at var3 777)))
(assert (= "9" (str.at var15 108)))
(assert (= "/" (str.at var47 716)))
(assert (= "D" (str.at var42 877)))
(assert (= "1" (str.at var22 44)))
(assert (= "w" (str.at var55 982)))
(assert (= "c" (str.at var34 783)))
(assert (= "<" (str.at var25 211)))
(assert (= "b" (str.at var31 418)))
(assert (= "=" (str.at var49 920)))
(assert (= "w" (str.at var22 777)))
(assert (= "&" (str.at var15 902)))
(assert (= "p" (str.at var49 152)))
(assert (= "F" (str.at var18 925)))
(assert (= "?" (str.at var18 487)))
(assert (= "&" (str.at var29 4)))
(assert (= "M" (str.at var41 0)))
(assert (= "]" (str.at var8 312)))
(assert (= "p" (str.at var53 213)))
(assert (= "Q" (str.at var38 111)))
(assert (= "e" (str.at var30 229)))
(assert (= "a" (str.at var26 789)))
(assert (= "k" (str.at var60 746)))
(assert (= "W" (str.at var45 146)))
(assert (= "0" (str.at var28 651)))
(assert (= "\\" (str.at var60 514)))
(assert (= "H" (str.at var26 678)))
(assert (= "o" (str.at var23 906)))
(assert (= "O" (str.at var43 801)))
(assert (= "$" (str.at var5 938)))
(assert (= "^" (str.at var22 66)))
(assert (= "@" (str.at var40 950)))
(assert (= "|" (str.at var50 41)))
(assert (= "L" (str.at var50 638)))
(assert (= "A" (str.at var22 454)))
(assert (= "z" (str.at var56 195)))
(assert (= "8" (str.at var13 581)))
(assert (= "(" (str.at var1 880)))
(assert (= "c" (str.at var33 218)))
(assert (= "7" (str.at var51 973)))
(assert (= "H" (str.at var6 658)))
(assert (= "@" (str.at var2 722)))
(assert (= "F" (str.at var18 303)))
(assert (= "2" (str.at var22 222)))
(assert (= ";" (str.at var43 984)))
(assert (= "T" (str.at var48 680)))
(assert (= "\\" (str.at var19 878)))
(assert (= "1" (str.at var1 594)))
(assert (= "3" (str.at var51 734)))
(assert (= "Z" (str.at var19 255)))
(assert (= "}" (str.at var22 407)))
(assert (= "3" (str.at var45 117)))
(assert (= "-" (str.at var42 865)))
(assert (= "b" (str.at var52 74)))
(assert (= "v" (str.at var37 69)))
(assert (= "I" (str.at var0 567)))
(assert (= "D" (str.at var32 590)))
(assert (= "j" (str.at var11 827)))
(assert (= "H" (str.at var5 551)))
(assert (= "f" (str.at var37 305)))
(assert (= "&" (str.at var10 681)))
(assert (= "T" (str.at var0 228)))
(assert (= "'" (str.at var8 344)))
(assert (= "I" (str.at var1 496)))
(assert (= "Q" (str.at var58 994)))
(assert (= "?" (str.at var45 460)))
(assert (= "M" (str.at var33 680)))
(assert (= "e" (str.at var13 435)))
(assert (= "U" (str.at var42 480)))
(assert (= "a" (str.at var31 32)))
(assert (= "~" (str.at var16 3)))
(assert (= "z" (str.at var24 473)))
(assert (= "&" (str.at var59 668)))
(assert (= "F" (str.at var1 371)))
(assert (= "`" (str.at var7 493)))
(assert (= "F" (str.at var18 222)))
(assert (= "b" (str.at var4 963)))
(assert (= "C" (str.at var0 510)))
(assert (= "[" (str.at var21 324)))
(assert (= "+" (str.at var4 271)))
(assert (= "%" (str.at var49 729)))
(assert (= "[" (str.at var18 518)))
(assert (= "," (str.at var36 332)))
(assert (= "Q" (str.at var56 462)))
(assert (= "N" (str.at var47 493)))
(assert (= "i" (str.at var42 522)))
(assert (= "s" (str.at var11 971)))
(assert (= "P" (str.at var2 963)))
(assert (= "7" (str.at var50 683)))
(assert (= "v" (str.at var37 469)))
(assert (= "C" (str.at var53 775)))
(assert (= "#" (str.at var36 707)))
(assert (= """" (str.at var41 856)))
(assert (= "B" (str.at var0 18)))
(assert (= "." (str.at var42 674)))
(assert (= "[" (str.at var4 944)))
(assert (= "g" (str.at var56 604)))
(assert (= "T" (str.at var19 4)))
(assert (= "o" (str.at var51 5)))
(assert (= "9" (str.at var34 522)))
(assert (= "g" (str.at var16 500)))
(assert (= "C" (str.at var26 377)))
(assert (= "`" (str.at var10 416)))
(assert (= "~" (str.at var19 856)))
(assert (= "R" (str.at var14 691)))
(assert (= "9" (str.at var50 908)))
(assert (= "I" (str.at var9 701)))
(assert (= "0" (str.at var27 892)))
(assert (= "Y" (str.at var36 591)))
(assert (= "#" (str.at var51 464)))
(assert (= "!" (str.at var40 206)))
(assert (= "@" (str.at var28 822)))
(assert (= "G" (str.at var28 895)))
(assert (= "F" (str.at var1 342)))
(assert (= "}" (str.at var14 30)))
(assert (= "=" (str.at var50 412)))
(assert (= "n" (str.at var25 542)))
(assert (= "u" (str.at var44 908)))
(assert (= "f" (str.at var0 444)))
(assert (= "[" (str.at var6 792)))
(assert (= "R" (str.at var40 312)))
(assert (= "n" (str.at var48 873)))
(assert (= "a" (str.at var17 626)))
(assert (= "f" (str.at var33 564)))
(assert (= "~" (str.at var42 4)))
(assert (= "m" (str.at var44 312)))
(assert (= "'" (str.at var40 64)))
(assert (= ":" (str.at var10 917)))
(assert (= "h" (str.at var49 450)))
(assert (= "$" (str.at var59 159)))
(assert (= "#" (str.at var15 436)))
(assert (= "(" (str.at var29 19)))
(assert (= "?" (str.at var15 863)))
(assert (= "j" (str.at var44 382)))
(assert (= "P" (str.at var14 448)))
(assert (= "=" (str.at var0 834)))
(assert (= "X" (str.at var21 292)))
(assert (= "k" (str.at var30 459)))
(assert (= "g" (str.at var24 404)))
(assert (= "V" (str.at var10 97)))
(assert (= "J" (str.at var28 167)))
(assert (= "t" (str.at var6 46)))
(assert (= "r" (str.at var13 576)))
(assert (= "N" (str.at var51 592)))
(assert (= """" (str.at var28 88)))
(assert (= "u" (str.at var24 220)))
(assert (= "Z" (str.at var0 925)))
(assert (= "B" (str.at var59 699)))
(assert (= "x" (str.at var3 3)))
(assert (= "n" (str.at var50 964)))
(assert (= "C" (str.at var34 646)))
(assert (= "~" (str.at var46 36)))
(assert (= "0" (str.at var32 779)))
(assert (= "e" (str.at var0 6)))
(assert (= "K" (str.at var7 593)))
(assert (= "L" (str.at var17 960)))
(assert (= "k" (str.at var7 241)))
(assert (= "U" (str.at var14 190)))
(assert (= "H" (str.at var37 752)))
(assert (= "K" (str.at var11 604)))
(assert (= "<" (str.at var15 600)))
(assert (= "@" (str.at var7 133)))
(assert (= "<" (str.at var50 231)))
(assert (= "[" (str.at var59 786)))
(assert (= "'" (str.at var22 440)))
(assert (= "+" (str.at var14 64)))
(assert (= "5" (str.at var44 8)))
(assert (= "\\" (str.at var26 454)))
(assert (= "Z" (str.at var34 628)))
(assert (= ">" (str.at var20 446)))
(assert (= "b" (str.at var30 301)))
(assert (= ";" (str.at var11 22)))
(assert (= "W" (str.at var51 765)))
(assert (= "X" (str.at var0 494)))
(assert (= "*" (str.at var0 147)))
(assert (= "#" (str.at var29 904)))
(assert (= """" (str.at var31 194)))
(assert (= "o" (str.at var53 601)))
(assert (= "h" (str.at var22 404)))
(assert (= "D" (str.at var11 753)))
(assert (= "^" (str.at var2 995)))
(assert (= "v" (str.at var46 135)))
(assert (= "c" (str.at var26 869)))
(assert (= "W" (str.at var56 326)))
(assert (= "(" (str.at var9 639)))
(assert (= "i" (str.at var21 430)))
(assert (= "a" (str.at var20 45)))
(assert (= "5" (str.at var12 17)))
(assert (= "(" (str.at var0 709)))
(assert (= "," (str.at var4 309)))
(assert (= "<" (str.at var27 57)))
(assert (= "j" (str.at var25 914)))
(assert (= "`" (str.at var17 50)))
(assert (= "S" (str.at var26 147)))
(assert (= "j" (str.at var1 105)))
(assert (= "z" (str.at var33 362)))
(assert (= "W" (str.at var14 833)))
(assert (= "u" (str.at var45 209)))
(assert (= "!" (str.at var38 711)))
(assert (= "!" (str.at var6 835)))
(assert (= "+" (str.at var55 508)))
(assert (= "7" (str.at var31 663)))
(assert (= "(" (str.at var38 549)))
(assert (= ":" (str.at var40 60)))
(assert (= "]" (str.at var33 410)))
(assert (= "Q" (str.at var22 956)))
(assert (= "U" (str.at var53 40)))
(assert (= "#" (str.at var24 658)))
(assert (= "Z" (str.at var3 581)))
(assert (= "/" (str.at var60 140)))
(assert (= "t" (str.at var50 281)))
(assert (= "X" (str.at var34 322)))
(assert (= "$" (str.at var60 344)))
(assert (= "|" (str.at var14 847)))
(assert (= "b" (str.at var33 245)))
(assert (= "~" (str.at var56 731)))
(assert (= "'" (str.at var11 537)))
(assert (= "V" (str.at var54 472)))
(assert (= ";" (str.at var40 887)))
(assert (= "{" (str.at var30 935)))
(assert (= "n" (str.at var19 347)))
(assert (= "}" (str.at var40 120)))
(assert (= "C" (str.at var1 303)))
(assert (= "0" (str.at var37 246)))
(assert (= "L" (str.at var54 588)))
(assert (= "M" (str.at var1 265)))
(assert (= "#" (str.at var37 837)))
(assert (= "V" (str.at var14 652)))
(assert (= "k" (str.at var36 226)))
(assert (= "(" (str.at var15 672)))
(assert (= "l" (str.at var16 437)))
(assert (= "p" (str.at var40 560)))
(assert (= "d" (str.at var56 125)))
(assert (= "^" (str.at var23 768)))
(assert (= "p" (str.at var12 291)))
(assert (= "/" (str.at var45 604)))
(assert (= "4" (str.at var60 656)))
(assert (= "e" (str.at var48 801)))
(assert (= "E" (str.at var51 379)))
(assert (= "=" (str.at var27 579)))
(assert (= "." (str.at var19 17)))
(assert (= "$" (str.at var36 578)))
(assert (= "J" (str.at var5 604)))
(assert (= "m" (str.at var20 357)))
(assert (= "k" (str.at var59 876)))
(assert (= "n" (str.at var39 463)))
(assert (= ")" (str.at var44 365)))
(assert (= "]" (str.at var60 299)))
(assert (= "|" (str.at var21 195)))
(assert (= "P" (str.at var35 718)))
(assert (= "b" (str.at var60 258)))
(assert (= "n" (str.at var45 13)))
(assert (= "g" (str.at var46 881)))
(assert (= "$" (str.at var50 706)))
(assert (= "2" (str.at var53 807)))
(assert (= "V" (str.at var9 751)))
(assert (= "'" (str.at var19 895)))
(assert (= "N" (str.at var10 480)))
(assert (= "}" (str.at var5 443)))
(assert (= "t" (str.at var24 520)))
(assert (= "9" (str.at var26 886)))
(assert (= "N" (str.at var38 449)))
(assert (= "2" (str.at var5 569)))
(assert (= "%" (str.at var2 740)))
(assert (= "d" (str.at var11 660)))
(assert (= "#" (str.at var15 317)))
(assert (= "~" (str.at var45 121)))
(assert (= "h" (str.at var1 896)))
(assert (= "8" (str.at var27 121)))
(assert (= "O" (str.at var26 534)))
(assert (= "\\" (str.at var22 46)))
(assert (= "P" (str.at var51 977)))
(assert (= ":" (str.at var47 302)))
(assert (= "]" (str.at var2 437)))
(assert (= "U" (str.at var58 113)))
(assert (= "=" (str.at var32 808)))
(assert (= "b" (str.at var27 193)))
(assert (= "#" (str.at var41 578)))
(assert (= "'" (str.at var3 425)))
(assert (= "D" (str.at var32 938)))
(assert (= "l" (str.at var26 354)))
(assert (= "g" (str.at var7 402)))
(assert (= "j" (str.at var19 104)))
(assert (= "k" (str.at var4 242)))
(assert (= "]" (str.at var20 162)))
(assert (= ";" (str.at var9 744)))
(assert (= "b" (str.at var15 677)))
(assert (= "i" (str.at var19 349)))
(assert (= "%" (str.at var27 271)))
(assert (= "#" (str.at var9 458)))
(assert (= ")" (str.at var51 367)))
(assert (= "G" (str.at var24 365)))
(assert (= "3" (str.at var38 589)))
(assert (= "y" (str.at var35 349)))
(assert (= "g" (str.at var54 610)))
(assert (= "@" (str.at var52 22)))
(assert (= "6" (str.at var44 879)))
(assert (= "s" (str.at var50 25)))
(assert (= "n" (str.at var30 130)))
(assert (= "U" (str.at var29 508)))
(assert (= "+" (str.at var28 918)))
(assert (= "o" (str.at var27 160)))
(assert (= "4" (str.at var16 519)))
(assert (= "0" (str.at var26 910)))
(assert (= "s" (str.at var55 346)))
(assert (= "%" (str.at var58 592)))
(assert (= "F" (str.at var22 151)))
(assert (= "1" (str.at var13 598)))
(assert (= "-" (str.at var18 453)))
(assert (= "V" (str.at var24 616)))
(assert (= "0" (str.at var5 440)))
(assert (= "J" (str.at var36 943)))
(assert (= "n" (str.at var20 620)))
(assert (= "F" (str.at var23 4)))
(assert (= "8" (str.at var15 250)))
(assert (= "M" (str.at var27 843)))
(assert (= "G" (str.at var41 468)))
(assert (= "C" (str.at var20 229)))
(assert (= "9" (str.at var24 711)))
(assert (= """" (str.at var39 866)))
(assert (= "e" (str.at var22 746)))
(assert (= "c" (str.at var33 546)))
(assert (= "2" (str.at var45 807)))
(assert (= "&" (str.at var11 533)))
(assert (= "#" (str.at var49 721)))
(assert (= "m" (str.at var32 385)))
(assert (= "?" (str.at var33 458)))
(assert (= "p" (str.at var54 475)))
(assert (= "p" (str.at var11 966)))
(assert (= "0" (str.at var16 798)))
(assert (= "y" (str.at var18 815)))
(assert (= "-" (str.at var26 784)))
(assert (= "f" (str.at var35 783)))
(assert (= "-" (str.at var60 22)))
(assert (= "L" (str.at var4 692)))
(assert (= "}" (str.at var15 577)))
(assert (= "@" (str.at var0 731)))
(assert (= "a" (str.at var39 269)))
(assert (= "P" (str.at var31 61)))
(assert (= "." (str.at var59 131)))
(assert (= "t" (str.at var49 499)))
(assert (= "&" (str.at var42 212)))
(assert (= "0" (str.at var13 303)))
(assert (= "#" (str.at var43 565)))
(assert (= "d" (str.at var46 282)))
(assert (= "h" (str.at var38 394)))
(assert (= "W" (str.at var56 95)))
(assert (= "*" (str.at var60 191)))
(assert (= "\\" (str.at var46 415)))
(assert (= "q" (str.at var5 922)))
(assert (= "x" (str.at var55 421)))
(assert (= "(" (str.at var37 786)))
(assert (= "v" (str.at var32 182)))
(assert (= "X" (str.at var30 346)))
(assert (= "(" (str.at var31 166)))
(assert (= "I" (str.at var25 543)))
(assert (= "C" (str.at var29 361)))
(assert (= "x" (str.at var54 242)))
(assert (= "x" (str.at var23 386)))
(assert (= "," (str.at var18 423)))
(assert (= "s" (str.at var54 133)))
(assert (= """" (str.at var13 145)))
(assert (= "~" (str.at var30 517)))
(assert (= "W" (str.at var55 236)))
(assert (= "&" (str.at var45 869)))
(assert (= "8" (str.at var27 677)))
(assert (= "(" (str.at var60 177)))
(assert (= "]" (str.at var33 800)))
(assert (= "&" (str.at var9 580)))
(assert (= "g" (str.at var45 17)))
(assert (= "<" (str.at var57 811)))
(assert (= "h" (str.at var16 123)))
(assert (= "D" (str.at var2 766)))
(assert (= "$" (str.at var51 699)))
(assert (= "A" (str.at var52 843)))
(assert (= "u" (str.at var37 491)))
(assert (= ")" (str.at var12 789)))
(assert (= "e" (str.at var19 512)))
(assert (= "u" (str.at var41 172)))
(assert (= "." (str.at var3 625)))
(assert (= "f" (str.at var53 8)))
(assert (= "Q" (str.at var46 157)))
(assert (= "O" (str.at var5 766)))
(assert (= "%" (str.at var8 545)))
(assert (= "`" (str.at var32 25)))
(assert (= "9" (str.at var42 370)))
(assert (= "Q" (str.at var13 706)))
(assert (= "*" (str.at var4 440)))
(assert (= "5" (str.at var43 42)))
(assert (= "V" (str.at var17 344)))
(assert (= "k" (str.at var60 931)))
(assert (= "\\" (str.at var3 153)))
(assert (= "v" (str.at var55 135)))
(assert (= "I" (str.at var8 634)))
(assert (= "a" (str.at var9 874)))
(assert (= "!" (str.at var47 642)))
(assert (= "s" (str.at var49 864)))
(assert (= "f" (str.at var24 447)))
(assert (= "T" (str.at var43 222)))
(assert (= "X" (str.at var60 794)))
(assert (= "D" (str.at var46 259)))
(assert (= "Y" (str.at var24 346)))
(assert (= "C" (str.at var52 103)))
(assert (= "!" (str.at var51 791)))
(check-sat)